&CONTROL
   calculation      = 'vc-relax'
   outdir           = './'
   etot_conv_thr    = 1e-06
   forc_conv_thr    = 1e-05
   disk_io          = 'none'
   pseudo_dir       = '/home/pinchenx/data.gpfs/softwares/QuantumEspresso/q-e-qe-6.4.1/pseudo'
/
&SYSTEM
   ecutwfc          = 150
   occupations      = 'fixed'
   input_dft        = 'SCAN'
   nosym            = .false.
   ntyp             = 3
   nat              = 5
   ibrav            = 0
/
&ELECTRONS
   conv_thr         = 1e-08
/
&IONS
/
&CELL
cell_dofree = 'xyz'
/

ATOMIC_SPECIES
Pb 207.2 Pb_ONCV_PBE-1.2.upf
Ti 47.867 Ti_ONCV_PBE-1.2.upf
O 15.999 O_ONCV_PBE-1.2.upf

K_POINTS automatic
4 4 4  0 0 0

CELL_PARAMETERS angstrom
3.86000000000000 0.00000000000000 0.00000000000000
0.00000000000000 3.86000000000000 0.00000000000000
0.00000000000000 0.00000000000000 4.3000000000000

ATOMIC_POSITIONS angstrom
Pb 0.0000000000 0.0000000000 0.0000000000 
Ti 1.9300000000 1.9300000000 2.35000000 
O 1.9300000000 1.9300000000 0.60000000 
O 0.0000000000 1.9300000000 2.75000000 
O 1.9300000000 0.0000000000 2.75000000 

