&inputpp 
   outdir = 'pwscf'
   prefix = 'pbtio3'
   seedname = 'PbTiO3'
   spin_component = 'none'
   write_mmn = .true.
   write_amn = .true.
   write_unk = .false.
/
