!exclude_bands : 1,2,3,4,5,6,7,8,9,10,11
num_wann  = 22
num_iter  = 100
write_xyz         = True
translate_home_cell = True

!gamma_only = .true.
!!To plot the WF
!wannier_plot = .true.
!wannier_plot_supercell = 2
!wannier_plot_list = 2
!restart = plot

!begin kpoint_path
!  L 0.50000  0.50000 0.5000 G 0.00000  0.00000 0.0000
!  G 0.00000  0.00000 0.0000 X 0.50000  0.00000 0.5000
!  X 0.50000 -0.50000 0.0000 K 0.37500 -0.37500 0.0000
!  K 0.37500 -0.37500 0.0000 G 0.00000  0.00000 0.0000
!end kpoint_path
!bands_plot =.true.

!auto_projections = .true.
guiding_centres = .true.
begin projections
  Pb: s;d
  Ti: s;p
  O: sp3
end projections

begin unit_cell_cart
  Ang
   3.845786476   0.000000000   0.000000000
   0.000000000   3.845786476   0.000000000
   0.000000000   0.000000000   4.392579330
end unit_cell_cart

begin atoms_cart
  Ang
Pb            0.0000000000        0.0000000000       -0.0241602544
Ti            1.9228932379        1.9228932379        2.3864463344
O             1.9228932379        1.9228932379        0.6375114620
O             0.0000000000        1.9228932379        2.8160658027
O             1.9228932379        0.0000000000        2.8160658027
end atoms_cart

mp_grid : 4 4 4
begin kpoints  
  0.00000000  0.00000000  0.00000000
  0.00000000  0.00000000  0.25000000
  0.00000000  0.00000000  0.50000000
  0.00000000  0.00000000  0.75000000
  0.00000000  0.25000000  0.00000000
  0.00000000  0.25000000  0.25000000
  0.00000000  0.25000000  0.50000000
  0.00000000  0.25000000  0.75000000
  0.00000000  0.50000000  0.00000000
  0.00000000  0.50000000  0.25000000
  0.00000000  0.50000000  0.50000000
  0.00000000  0.50000000  0.75000000
  0.00000000  0.75000000  0.00000000
  0.00000000  0.75000000  0.25000000
  0.00000000  0.75000000  0.50000000
  0.00000000  0.75000000  0.75000000
  0.25000000  0.00000000  0.00000000
  0.25000000  0.00000000  0.25000000
  0.25000000  0.00000000  0.50000000
  0.25000000  0.00000000  0.75000000
  0.25000000  0.25000000  0.00000000
  0.25000000  0.25000000  0.25000000
  0.25000000  0.25000000  0.50000000
  0.25000000  0.25000000  0.75000000
  0.25000000  0.50000000  0.00000000
  0.25000000  0.50000000  0.25000000
  0.25000000  0.50000000  0.50000000
  0.25000000  0.50000000  0.75000000
  0.25000000  0.75000000  0.00000000
  0.25000000  0.75000000  0.25000000
  0.25000000  0.75000000  0.50000000
  0.25000000  0.75000000  0.75000000
  0.50000000  0.00000000  0.00000000
  0.50000000  0.00000000  0.25000000
  0.50000000  0.00000000  0.50000000
  0.50000000  0.00000000  0.75000000
  0.50000000  0.25000000  0.00000000
  0.50000000  0.25000000  0.25000000
  0.50000000  0.25000000  0.50000000
  0.50000000  0.25000000  0.75000000
  0.50000000  0.50000000  0.00000000
  0.50000000  0.50000000  0.25000000
  0.50000000  0.50000000  0.50000000
  0.50000000  0.50000000  0.75000000
  0.50000000  0.75000000  0.00000000
  0.50000000  0.75000000  0.25000000
  0.50000000  0.75000000  0.50000000
  0.50000000  0.75000000  0.75000000
  0.75000000  0.00000000  0.00000000
  0.75000000  0.00000000  0.25000000
  0.75000000  0.00000000  0.50000000
  0.75000000  0.00000000  0.75000000
  0.75000000  0.25000000  0.00000000
  0.75000000  0.25000000  0.25000000
  0.75000000  0.25000000  0.50000000
  0.75000000  0.25000000  0.75000000
  0.75000000  0.50000000  0.00000000
  0.75000000  0.50000000  0.25000000
  0.75000000  0.50000000  0.50000000
  0.75000000  0.50000000  0.75000000
  0.75000000  0.75000000  0.00000000
  0.75000000  0.75000000  0.25000000
  0.75000000  0.75000000  0.50000000
  0.75000000  0.75000000  0.75000000
end kpoints  
