&inputpp 
   outdir = '/tmp/REPLACE0'
   prefix = 'pto'
   seedname = 'PTO'
   spin_component = 'none'
   write_mmn = .true.
   write_amn = .true.
   write_unk = .false.
/
