&CONTROL
   calculation      = 'vc-relax'
   outdir           = './'
   etot_conv_thr    = 1e-06
   forc_conv_thr    = 1e-05
   disk_io          = 'None'
   pseudo_dir       = '/home/pinchenx/data.gpfs/softwares/QuantumEspresso/pseudos'
/
&SYSTEM
   ecutwfc          = 150
   nosym            = .false.
   occupations      = 'fixed'
   input_dft        = 'SCAN'
   ntyp             = 3
   nat              = 5
   ibrav            = 0
/
&ELECTRONS
   conv_thr         = 1e-08
/
&IONS
/
&CELL
cell_dofree = 'xyz'
/

ATOMIC_SPECIES
Pb 207.2 Pb_ONCV_PBE-1.2.upf
Ti 47.867 Ti_ONCV_PBE-1.2.upf
O 15.999 O_ONCV_PBE-1.2.upf

K_POINTS automatic
4 4 4  0 0 0

CELL_PARAMETERS angstrom
3.95000000000000 0.00000000000000 0.00000000000000
0.00000000000000 3.95000000000000 0.00000000000000
0.00000000000000 0.00000000000000 3.95000000000000

ATOMIC_POSITIONS angstrom
Pb 0.0000000000 0.0000000000 0.0000000000 
Ti 1.9750000000 1.9750000000 1.9750000000 
O 1.9750000000 1.9750000000 0.0000000000 
O 0.0000000000 1.9750000000 1.9750000000 
O 1.9750000000 0.0000000000 1.9750000000 

