
135 atoms
3 atom types
   0.0000000000   11.5388973529 xlo xhi
   0.0000000000   11.5388973529 ylo yhi
   0.0000000000   11.5388973529 zlo zhi
   0.0000000000    0.0000000000    0.0000000000 xy xz yz

Atoms # atomic

     1      1    5.8086966266    5.8086966266    3.8462991176
     2      1    3.8462991176    9.6549957443    9.6549957443
     3      1    5.8086966266    9.6549957443    7.6925982353
     4      1    5.8086966266    7.6925982353    5.8086966266
     5      1    3.8462991176    9.6549957443    5.8086966266
     6      1    5.8086966266    9.6549957443    3.8462991176
     7      1    5.8086966266    7.6925982353    1.9623975090
     8      1    3.8462991176    9.6549957443    1.9623975090
     9      1    5.8086966266    9.6549957443    0.0000000000
    10      1    5.8086966266    3.8462991176    9.6549957443
    11      1    3.8462991176    5.8086966266    9.6549957443
    12      1    5.8086966266    5.8086966266    7.6925982353
    13      1    5.8086966266    3.8462991176    5.8086966266
    14      1    3.8462991176    5.8086966266    5.8086966266
    15      1    7.6925982353    9.6549957443    9.6549957443
    16      1    5.8086966266    3.8462991176    1.9623975090
    17      1    3.8462991176    5.8086966266    1.9623975090
    18      1    5.8086966266    5.8086966266    0.0000000000
    19      1    5.8086966266    0.0000000000    9.6549957443
    20      1    3.8462991176    1.9623975090    9.6549957443
    21      1    5.8086966266    1.9623975090    7.6925982353
    22      1    5.8086966266    0.0000000000    5.8086966266
    23      1    5.8086966266    7.6925982353    9.6549957443
    24      1    9.6549957443    1.9623975090    0.0000000000
    25      1    7.6925982353    1.9623975090    1.9623975090
    26      1    9.6549957443    0.0000000000    1.9623975090
    27      1    9.6549957443    9.6549957443    7.6925982353
    28      1    9.6549957443    7.6925982353    5.8086966266
    29      1    7.6925982353    9.6549957443    5.8086966266
    30      1    9.6549957443    9.6549957443    3.8462991176
    31      1    9.6549957443    7.6925982353    1.9623975090
    32      1    7.6925982353    9.6549957443    1.9623975090
    33      1    9.6549957443    9.6549957443    0.0000000000
    34      1    9.6549957443    3.8462991176    9.6549957443
    35      1    7.6925982353    5.8086966266    9.6549957443
    36      1    9.6549957443    5.8086966266    7.6925982353
    37      1    3.8462991176    1.9623975090    5.8086966266
    38      1    9.6549957443    3.8462991176    5.8086966266
    39      1    9.6549957443    5.8086966266    3.8462991176
    40      1    9.6549957443    3.8462991176    1.9623975090
    41      1    7.6925982353    5.8086966266    1.9623975090
    42      1    9.6549957443    5.8086966266    0.0000000000
    43      1    9.6549957443    0.0000000000    9.6549957443
    44      1    7.6925982353    1.9623975090    9.6549957443
    45      1    9.6549957443    1.9623975090    7.6925982353
    46      1    9.6549957443    0.0000000000    5.8086966266
    47      1    7.6925982353    1.9623975090    5.8086966266
    48      1    9.6549957443    1.9623975090    3.8462991176
    49      1    7.6925982353    5.8086966266    5.8086966266
    50      1    5.8086966266    1.9623975090    3.8462991176
    51      1    9.6549957443    7.6925982353    9.6549957443
    52      1    1.9623975090    9.6549957443    3.8462991176
    53      1    0.0000000000    5.8086966266    5.8086966266
    54      1    1.9623975090    1.9623975090    7.6925982353
    55      1    0.0000000000    1.9623975090    9.6549957443
    56      1    1.9623975090    0.0000000000    9.6549957443
    57      1    1.9623975090    7.6925982353    1.9623975090
    58      1    0.0000000000    9.6549957443    1.9623975090
    59      1    0.0000000000    9.6549957443    5.8086966266
    60      1    1.9623975090    9.6549957443    0.0000000000
    61      1    0.0000000000    5.8086966266    1.9623975090
    62      1    1.9623975090    3.8462991176    9.6549957443
    63      1    1.9623975090    3.8462991176    1.9623975090
    64      1    0.0000000000    5.8086966266    9.6549957443
    65      1    1.9623975090    5.8086966266    7.6925982353
    66      1    1.9623975090    5.8086966266    3.8462991176
    67      1    1.9623975090    5.8086966266    0.0000000000
    68      1    1.9623975090    7.6925982353    5.8086966266
    69      1    1.9623975090    3.8462991176    5.8086966266
    70      1    0.0000000000    1.9623975090    5.8086966266
    71      1    5.8086966266    0.0000000000    1.9623975090
    72      1    1.9623975090    1.9623975090    3.8462991176
    73      1    1.9623975090    9.6549957443    7.6925982353
    74      1    3.8462991176    1.9623975090    1.9623975090
    75      1    0.0000000000    9.6549957443    9.6549957443
    76      1    5.8086966266    1.9623975090    0.0000000000
    77      1    1.9623975090    7.6925982353    9.6549957443
    78      1    1.9623975090    0.0000000000    5.8086966266
    79      1    1.9623975090    0.0000000000    1.9623975090
    80      1    0.0000000000    1.9623975090    1.9623975090
    81      1    1.9623975090    1.9623975090    0.0000000000
    82      2    7.6925982353    0.0000000000    3.8462991176
    83      2    0.0000000000    3.8462991176    3.8462991176
    84      2    7.6925982353    0.0000000000    7.6925982353
    85      2    7.6925982353    7.6925982353    7.6925982353
    86      2    7.6925982353    3.8462991176    0.0000000000
    87      2    7.6925982353    7.6925982353    3.8462991176
    88      2    0.0000000000    0.0000000000    3.8462991176
    89      2    7.6925982353    3.8462991176    3.8462991176
    90      2    7.6925982353    7.6925982353    0.0000000000
    91      2    7.6925982353    3.8462991176    7.6925982353
    92      2    0.0000000000    0.0000000000    7.6925982353
    93      2    0.0000000000    3.8462991176    0.0000000000
    94      2    0.0000000000    3.8462991176    7.6925982353
    95      2    0.0000000000    0.0000000000    0.0000000000
    96      2    3.8462991176    3.8462991176    0.0000000000
    97      2    3.8462991176    3.8462991176    3.8462991176
    98      2    3.8462991176    0.0000000000    3.8462991176
    99      2    0.0000000000    7.6925982353    3.8462991176
   100      2    3.8462991176    7.6925982353    0.0000000000
   101      2    3.8462991176    7.6925982353    3.8462991176
   102      2    3.8462991176    3.8462991176    7.6925982353
   103      2    3.8462991176    0.0000000000    0.0000000000
   104      2    0.0000000000    7.6925982353    7.6925982353
   105      2    3.8462991176    7.6925982353    7.6925982353
   106      2    3.8462991176    0.0000000000    7.6925982353
   107      2    7.6925982353    0.0000000000    0.0000000000
   108      2    0.0000000000    7.6925982353    0.0000000000
   109      3    9.6549957443    9.6549957443    5.8086966266
   110      3    5.8086966266    1.9623975090    1.9623975090
   111      3    5.8086966266    5.8086966266    1.9623975090
   112      3    5.8086966266    1.9623975090    9.6549957443
   113      3    1.9623975090    1.9623975090    5.8086966266
   114      3    1.9623975090    9.6549957443    9.6549957443
   115      3    9.6549957443    9.6549957443    9.6549957443
   116      3    9.6549957443    9.6549957443    1.9623975090
   117      3    1.9623975090    1.9623975090    1.9623975090
   118      3    5.8086966266    5.8086966266    5.8086966266
   119      3    9.6549957443    1.9623975090    1.9623975090
   120      3    1.9623975090    1.9623975090    9.6549957443
   121      3    5.8086966266    5.8086966266    9.6549957443
   122      3    1.9623975090    9.6549957443    5.8086966266
   123      3    9.6549957443    5.8086966266    5.8086966266
   124      3    5.8086966266    9.6549957443    1.9623975090
   125      3    1.9623975090    5.8086966266    1.9623975090
   126      3    9.6549957443    5.8086966266    1.9623975090
   127      3    5.8086966266    9.6549957443    5.8086966266
   128      3    1.9623975090    9.6549957443    1.9623975090
   129      3    9.6549957443    1.9623975090    9.6549957443
   130      3    5.8086966266    9.6549957443    9.6549957443
   131      3    1.9623975090    5.8086966266    9.6549957443
   132      3    1.9623975090    5.8086966266    5.8086966266
   133      3    9.6549957443    1.9623975090    5.8086966266
   134      3    9.6549957443    5.8086966266    9.6549957443
   135      3    5.8086966266    1.9623975090    5.8086966266
